4 
5  09 24 39 54 
6  09 24 39 54 
7  09 24 39 54 
8  09 24 39 54 
9  09 26 41 56 
10  11 26 41 56 
11  11 26 41 56 
12  11 26 41 56 
13  11 26 41 56 
14  11 23 38 54 
15  09 24 39 54 
16  09 24 39 54 
17  09 24 39 54 
18  09 24 39 57 
19  11 23 38 53 
20 
